
Gurobi 10.0.0 (win64) logging started Fri Apr 12 12:10:35 2024

Set parameter LogFile to value "C:\Users\ealvarezq\Documents\GitHub\Comillas\Models\JointResearch\05. Models\06.Benchmarking\K.Investments_per_hour\IEEE118_mod1_ByStages_nc200/openStarNet_IEEE118_mod1_ByStages_nc200.log"
Set parameter Method to value 2
Set parameter MIPFocus to value 1
Set parameter Presolve to value 2
Set parameter RINS to value 100
Set parameter MIPGap to value 0.01
Set parameter Threads to value 9
Set parameter TimeLimit to value 259200
Set parameter IterationLimit to value 760000000
Gurobi Optimizer version 10.0.0 build v10.0.0rc2 (win64)

CPU model: Intel(R) Core(TM) i7-8700 CPU @ 3.20GHz, instruction set [SSE2|AVX|AVX2]
Thread count: 6 physical cores, 12 logical processors, using up to 9 threads

Optimize a model with 284204 rows, 209778 columns and 731613 nonzeros
Model fingerprint: 0xf536d47d
Variable types: 209744 continuous, 34 integer (34 binary)
Coefficient statistics:
  Matrix range     [5e-04, 9e+03]
  Objective range  [1e+00, 1e+00]
  Bounds range     [1e-04, 3e+00]
  RHS range        [2e-04, 3e+00]
Presolve removed 192271 rows and 96883 columns
Presolve time: 1.76s
Presolved: 91933 rows, 112895 columns, 335976 nonzeros
Variable types: 112861 continuous, 34 integer (34 binary)
Root relaxation presolved: 91933 rows, 112895 columns, 335976 nonzeros

Root barrier log...

Ordering time: 0.03s

Barrier statistics:
 Dense cols : 34
 AA' NZ     : 4.165e+05
 Factor NZ  : 1.646e+06 (roughly 100 MB of memory)
 Factor Ops : 3.629e+07 (less than 1 second per iteration)
 Threads    : 8

                  Objective                Residual
Iter       Primal          Dual         Primal    Dual     Compl     Time
   0   8.97838228e+06 -1.29559632e+09  1.57e+01 9.30e+02  2.13e+04     3s
   1   2.19622297e+06 -4.99459633e+08  3.52e+00 4.06e-08  4.45e+03     3s
   2   5.90080129e+05 -1.86511470e+08  6.42e-01 3.50e-08  1.01e+03     3s
   3   3.43284805e+05 -4.74575461e+07  1.74e-01 8.72e-09  2.21e+02     3s
   4   2.37104478e+05 -6.57690646e+06  1.47e-02 1.57e-09  2.61e+01     3s
   5   1.69850536e+05 -1.92900587e+06  3.66e-03 4.49e-10  7.82e+00     3s
   6   1.01566659e+05 -6.84786123e+05  1.60e-03 1.57e-10  2.91e+00     3s
   7   5.50841221e+04 -4.26301424e+05  6.60e-04 9.37e-11  1.78e+00     3s
   8   2.19742574e+04 -1.01675156e+05  1.66e-04 2.68e-11  4.57e-01     3s
   9   1.45460531e+04 -5.97143697e+04  9.52e-05 1.73e-11  2.74e-01     3s
  10   9.63666983e+03 -2.53690568e+04  5.27e-05 8.19e-12  1.29e-01     3s
  11   5.66287792e+03 -8.67818483e+03  2.29e-05 4.86e-12  5.29e-02     3s
  12   3.87972941e+03 -4.48680640e+03  1.27e-05 2.10e-12  3.09e-02     3s
  13   2.97413798e+03 -1.88540005e+03  8.20e-06 1.54e-12  1.79e-02     3s
  14   2.26943293e+03 -5.50739171e+02  4.93e-06 1.45e-12  1.04e-02     3s
  15   1.89992970e+03  4.77591259e+01  3.27e-06 3.91e-12  6.84e-03     3s
  16   1.64674020e+03  3.99684050e+02  2.18e-06 3.14e-12  4.60e-03     3s
  17   1.43570094e+03  7.75317517e+02  1.30e-06 8.33e-12  2.44e-03     3s
  18   1.26452355e+03  9.50982758e+02  6.06e-07 3.90e-12  1.16e-03     4s
  19   1.20489621e+03  1.01801026e+03  3.78e-07 2.08e-12  6.90e-04     4s
  20   1.16438708e+03  1.04674744e+03  2.24e-07 2.82e-12  4.34e-04     4s
  21   1.14745808e+03  1.06027303e+03  1.61e-07 5.97e-12  3.22e-04     4s
  22   1.13417097e+03  1.07030748e+03  1.12e-07 2.41e-12  2.36e-04     4s
  23   1.12229965e+03  1.08316726e+03  6.67e-08 3.84e-12  1.44e-04     4s
  24   1.11381554e+03  1.09231104e+03  3.69e-08 1.20e-11  7.94e-05     4s
  25   1.11004425e+03  1.09659890e+03  2.36e-08 8.42e-12  4.96e-05     4s
  26   1.10747360e+03  1.09907215e+03  1.46e-08 1.33e-11  3.10e-05     4s
  27   1.10621652e+03  1.10027877e+03  1.03e-08 9.36e-12  2.19e-05     4s
  28   1.10486791e+03  1.10168655e+03  5.74e-09 1.34e-11  1.17e-05     4s
  29   1.10403239e+03  1.10223308e+03  2.95e-09 1.33e-11  6.64e-06     4s
  30   1.10338771e+03  1.10286320e+03  8.38e-10 2.98e-12  1.94e-06     4s
  31   1.10319158e+03  1.10308672e+03  4.58e-10 1.79e-12  3.87e-07     4s
  32   1.10313420e+03  1.10310338e+03  3.27e-10 1.29e-12  1.14e-07     4s
  33   1.10312250e+03  1.10311404e+03  7.70e-10 1.86e-12  3.12e-08     4s
  34   1.10311790e+03  1.10311656e+03  2.45e-10 2.79e-12  4.91e-09     5s
  35   1.10311714e+03  1.10311711e+03  1.36e-10 2.36e-12  1.11e-10     5s
  36   1.10311712e+03  1.10311712e+03  4.15e-11 2.91e-12  1.14e-13     5s

Barrier solved model in 36 iterations and 4.65 seconds (4.38 work units)
Optimal objective 1.10311712e+03


Root crossover log...

       0 DPushes remaining with DInf 0.0000000e+00                 6s

    3255 PPushes remaining with PInf 0.0000000e+00                 6s
       0 PPushes remaining with PInf 0.0000000e+00                 6s

  Push phase complete: Pinf 0.0000000e+00, Dinf 4.3197118e-11      6s


Root simplex log...

Iteration    Objective       Primal Inf.    Dual Inf.      Time
    7600    1.1031171e+03   0.000000e+00   0.000000e+00      6s
    7600    1.1031171e+03   0.000000e+00   0.000000e+00      6s

Root relaxation: objective 1.103117e+03, 7600 iterations, 4.38 seconds (4.43 work units)

    Nodes    |    Current Node    |     Objective Bounds      |     Work
 Expl Unexpl |  Obj  Depth IntInf | Incumbent    BestBd   Gap | It/Node Time

     0     0 1103.11712    0   23          - 1103.11712      -     -    7s
H    0     0                    5579.5649868 1103.11712  80.2%     -   16s
     0     0 1124.03656    0   24 5579.56499 1124.03656  79.9%     -   32s
H    0     0                    1325.3143280 1124.03656  15.2%     -   38s
     0     0 1124.24243    0   24 1325.31433 1124.24243  15.2%     -   39s
     0     0 1124.55834    0   23 1325.31433 1124.55834  15.1%     -   40s
     0     0 1124.56043    0   23 1325.31433 1124.56043  15.1%     -   40s
     0     0 1126.78165    0   24 1325.31433 1126.78165  15.0%     -   44s
     0     0 1126.80983    0   24 1325.31433 1126.80983  15.0%     -   45s
     0     0 1126.81314    0   24 1325.31433 1126.81314  15.0%     -   46s
     0     0 1127.43703    0   23 1325.31433 1127.43703  14.9%     -   51s
     0     0 1127.44040    0   23 1325.31433 1127.44040  14.9%     -   52s
     0     0 1127.44054    0   23 1325.31433 1127.44054  14.9%     -   53s
     0     0 1127.45221    0   23 1325.31433 1127.45221  14.9%     -   57s
     0     0 1127.55899    0   23 1325.31433 1127.55899  14.9%     -   61s
